100 20
3
32 93 14 85 52 25 60 83 68 89 24 57 63 12 18 99 26 77 25 0 22 14 74 39 75 19 9 99 71 53 66 27 88 2 71 85 19 14 13 97 82 22 61 81 11 28 44 2 3 10 31 91 96 29 55 29 33 41 65 49 25 85 48 53 48 0 38 7 21 5 15 77 80 63 97 30 32 72 44 40 67 24 78 67 50 48 35 52 31 1 64 31 18 66 15 43 39 20 1 0
914 689 593 530 765 738 756 700 437 748 1058 825 935 530 559 905 695 767 497 790
0 36 0 0 0 92 0 0 0 0 0 0 93 0 0 0 0 0 0 0 0 35 41 0 0 0 0 0 0 80 0 0 0 0 0 0 0 36 40 0 0 0 0 0 0 0 0 0 78 0 0 0 0 0 0 0 92 0 11 0 6 0 0 0 75 35 63 0 91 49 0 0 0 0 0 18 0 0 52 94 0 46 7 0 0 0 0 0 0 0 0 0 0 0 23 0 92 0 0 0
0 10 0 0 0 0 0 42 0 0 0 0 0 0 0 0 0 0 0 0 0 0 0 4 0 0 0 0 0 0 12 2 0 0 96 0 0 0 0 0 0 0 0 0 0 96 0 0 0 99 44 0 0 79 0 0 0 0 4 0 0 0 0 0 0 0 38 0 0 0 0 0 0 0 0 0 78 0 0 33 0 0 0 0 0 0 0 67 0 0 54 0 0 0 0 0 0 64 0 0
0 0 0 0 0 0 0 0 0 93 0 36 0 0 0 0 0 0 0 0 0 0 0 0 0 0 0 56 51 0 0 0 51 0 0 0 5 0 0 0 0 0 0 0 29 0 0 0 0 0 83 0 0 0 0 0 0 0 0 0 27 43 0 0 0 0 0 0 65 0 0 0 98 0 0 63 0 0 0 0 0 0 0 0 0 0 0 0 14 0 26 0 0 0 0 0 0 0 0 68
0 0 18 97 0 0 52 76 0 45 0 0 40 7 0 0 0 0 0 0 0 61 0 0 0 0 0 0 0 92 0 0 0 0 0 0 0 0 0 0 0 0 38 0 75 0 0 0 0 0 0 0 0 0 0 0 0 0 0 0 0 0 0 0 0 21 0 0 0 0 0 0 0 0 0 0 57 0 0 0 0 0 0 0 0 0 0 0 0 0 0 0 0 0 0 0 0 0 0 0
0 46 83 0 0 0 0 4 0 0 0 0 0 0 0 0 37 0 0 95 0 0 69 0 0 0 39 0 37 0 0 87 0 0 0 0 0 0 0 30 0 0 0 0 69 0 0 0 27 0 0 0 0 0 0 0 0 0 14 0 0 0 0 0 0 0 26 0 0 0 99 0 0 0 55 0 64 15 0 0 0 0 49 0 32 0 0 0 0 0 0 57 52 0 0 0 0 0 0 0
0 1 0 0 0 0 0 77 0 0 0 0 0 0 0 0 0 0 0 0 30 0 0 50 32 43 0 69 0 0 0 0 0 0 0 0 0 0 0 0 0 0 0 9 0 77 0 0 95 0 0 82 0 0 0 0 0 0 0 0 0 0 0 0 0 76 0 49 0 0 61 74 0 0 89 0 0 0 0 46 0 0 0 0 0 0 0 0 0 0 0 0 14 0 0 40 0 0 0 0
0 0 0 0 71 0 0 0 48 0 42 0 0 57 0 0 0 0 0 0 0 0 0 0 0 0 26 0 31 11 3 54 0 13 0 56 0 0 0 0 70 0 0 0 0 0 0 0 0 0 0 0 46 0 0 0 0 0 0 0 0 0 0 0 0 69 66 89 28 0 0 0 0 0 29 0 0 0 7 0 0 0 0 0 29 0 0 0 0 0 0 0 50 0 0 0 0 98 83 0
0 0 0 0 0 0 0 0 0 0 0 0 0 0 0 0 88 0 0 0 0 0 0 0 0 0 0 0 0 0 0 18 0 0 74 0 65 0 0 0 0 0 36 0 0 8 0 0 18 0 0 0 0 85 0 42 0 0 0 58 0 0 0 0 0 0 34 0 0 0 0 0 0 0 0 0 11 0 0 0 76 68 0 99 0 0 59 62 0 0 0 0 0 0 0 0 97 0 0 0
0 0 0 0 0 0 0 0 0 0 0 0 0 0 0 0 0 0 0 0 0 0 0 74 0 26 0 0 0 0 0 0 95 41 0 0 48 0 0 22 0 0 0 0 0 0 0 0 0 0 0 0 0 0 60 0 0 0 0 0 0 0 0 0 66 0 0 0 0 0 0 0 8 0 0 0 0 0 0 0 0 0 0 0 0 0 0 42 0 0 0 0 0 0 91 0 0 2 67 0
0 0 0 0 0 46 78 6 0 0 20 23 0 99 0 0 0 0 50 0 0 0 0 85 33 0 0 0 33 0 61 0 0 0 27 0 0 71 0 0 0 88 46 58 21 0 0 19 0 0 0 0 21 0 0 0 0 0 0 0 0 0 0 0 0 0 0 7 0 0 0 0 0 0 0 0 0 0 0 0 62 0 0 47 87 0 0 0 0 0 0 0 0 55 0 0 0 15 0 0
0 0 0 94 0 0 0 97 98 0 11 90 0 0 47 0 0 0 0 0 89 0 56 33 0 0 0 0 0 0 81 79 0 0 70 0 0 0 0 0 0 0 0 0 0 36 0 0 0 0 0 0 88 0 0 78 0 27 0 53 0 0 0 0 0 0 0 26 0 0 0 0 0 0 21 0 0 0 0 75 0 2 0 90 0 0 0 0 0 0 0 99 0 0 92 0 0 0 0 0
0 0 0 0 0 0 0 0 56 0 0 0 0 0 0 0 0 0 0 52 0 87 38 0 0 0 0 0 0 14 0 0 0 0 0 0 0 10 0 0 78 0 0 97 0 64 0 0 0 0 0 20 0 0 0 92 0 83 0 17 0 0 0 0 0 90 0 0 0 68 30 52 0 0 0 0 0 0 32 0 0 0 0 0 0 0 35 0 0 38 11 0 0 0 0 0 0 0 0 24
0 0 0 0 0 0 0 61 0 0 0 0 12 0 0 0 0 0 0 0 0 0 0 0 0 0 87 0 0 0 0 0 84 0 0 60 76 0 0 24 0 32 0 0 0 0 0 0 0 0 0 0 14 93 0 0 0 0 0 0 35 25 0 0 0 33 99 0 78 0 0 0 0 0 57 0 46 0 21 92 99 0 58 0 40 0 0 62 0 0 0 0 0 0 0 0 18 0 0 0
0 0 0 0 0 0 0 0 0 0 0 0 38 0 0 42 0 0 0 0 73 0 0 0 0 72 0 0 0 0 0 79 0 0 0 0 0 83 0 0 0 0 0 0 0 0 20 0 52 0 0 0 0 0 0 0 0 0 0 68 0 0 0 0 0 0 0 0 0 24 0 48 0 0 0 0 0 0 0 0 0 0 0 0 0 0 0 33 0 0 0 0 0 0 0 0 33 0 0 0
0 0 0 0 0 0 0 0 29 0 0 0 0 0 0 0 0 0 0 0 0 0 63 0 0 0 0 0 0 0 0 0 0 0 0 23 0 0 0 0 0 0 0 0 0 81 0 39 56 0 0 65 0 0 0 0 0 0 34 0 17 0 11 0 53 0 0 11 0 0 83 0 0 0 0 91 0 0 0 0 0 0 0 0 9 0 0 0 32 0 0 63 0 40 0 0 0 0 0 0
92 0 82 0 0 0 0 49 0 0 0 13 0 0 0 0 0 0 0 0 0 0 0 7 0 59 0 0 0 35 56 0 0 0 66 21 0 0 0 0 0 0 0 0 0 0 0 0 8 0 0 0 0 86 36 0 0 92 84 0 0 99 8 55 17 0 0 0 0 0 0 0 50 0 91 0 0 0 0 0 0 52 0 0 0 0 0 0 65 68 0 0 0 0 0 0 0 0 0 0
0 0 0 0 62 0 0 0 33 92 0 0 0 0 0 89 0 0 89 0 10 0 16 0 0 0 0 0 0 0 0 0 38 0 30 0 0 0 0 0 0 0 0 0 55 0 0 0 0 0 0 0 25 0 7 0 0 0 0 0 0 52 0 0 0 0 0 14 0 0 0 0 0 0 0 16 0 0 0 50 0 0 0 0 0 0 0 95 34 0 0 0 0 70 0 12 0 0 0 29
0 0 0 46 0 0 0 0 0 0 0 0 0 0 0 39 0 6 0 0 1 0 0 48 55 0 0 0 0 0 79 19 4 0 0 8 0 0 0 0 0 96 0 0 0 0 0 0 0 0 0 0 0 70 0 0 25 0 0 0 96 0 0 63 0 0 46 0 0 0 69 0 0 0 0 0 0 57 0 0 0 0 0 5 0 64 0 0 0 0 80 96 0 0 0 0 0 0 0 0
0 0 0 0 0 0 63 0 0 0 0 0 0 69 0 0 34 0 0 88 0 24 3 0 0 0 0 0 0 0 0 0 0 0 0 0 0 0 0 0 0 0 0 20 0 0 0 0 0 0 0 0 0 0 0 0 0 0 0 0 0 0 87 61 0 0 0 0 0 0 0 0 0 80 0 0 1 52 0 0 0 0 0 0 0 36 49 0 0 21 0 0 0 0 0 0 0 0 0 0
0 0 0 60 0 0 0 0 0 13 66 0 0 0 0 70 0 0 0 0 0 0 0 0 0 0 49 0 0 0 0 0 0 0 0 0 53 0 0 0 0 0 0 87 0 0 0 0 0 39 71 2 0 0 57 0 0 0 0 0 0 57 0 0 25 73 74 0 0 0 0 0 0 0 0 0 0 0 0 56 42 0 0 24 0 0 0 0 28 53 0 0 0 5 0 0 82 0 51 0
0 24 0 0 0 76 0 0 0 0 0 0 40 0 0 0 0 0 0 0 0 21 28 0 0 0 0 0 0 40 0 0 0 0 0 0 0 23 28 0 0 0 0 0 0 0 0 0 37 0 0 0 0 0 0 0 5 0 0 0 1 0 0 0 68 20 13 0 56 29 0 0 0 0 0 7 0 0 17 60 0 5 3 0 0 0 0 0 0 0 0 0 0 0 8 0 79 0 0 0
0 4 0 0 0 0 0 28 0 0 0 0 0 0 0 0 0 0 0 0 0 0 0 0 0 0 0 0 0 0 0 0 0 0 57 0 0 0 0 0 0 0 0 0 0 94 0 0 0 39 26 0 0 78 0 0 0 0 1 0 0 0 0 0 0 0 5 0 0 0 0 0 0 0 0 0 76 0 0 25 0 0 0 0 0 0 0 37 0 0 44 0 0 0 0 0 0 60 0 0
0 0 0 0 0 0 0 0 0 15 0 28 0 0 0 0 0 0 0 0 0 0 0 0 0 0 0 41 7 0 0 0 2 0 0 0 3 0 0 0 0 0 0 0 20 0 0 0 0 0 66 0 0 0 0 0 0 0 0 0 25 36 0 0 0 0 0 0 37 0 0 0 3 0 0 25 0 0 0 0 0 0 0 0 0 0 0 0 7 0 20 0 0 0 0 0 0 0 0 64
0 0 0 52 0 0 17 46 0 35 0 0 20 1 0 0 0 0 0 0 0 54 0 0 0 0 0 0 0 35 0 0 0 0 0 0 0 0 0 0 0 0 14 0 60 0 0 0 0 0 0 0 0 0 0 0 0 0 0 0 0 0 0 0 0 18 0 0 0 0 0 0 0 0 0 0 36 0 0 0 0 0 0 0 0 0 0 0 0 0 0 0 0 0 0 0 0 0 0 0
0 42 23 0 0 0 0 1 0 0 0 0 0 0 0 0 0 0 0 32 0 0 12 0 0 0 26 0 11 0 0 25 0 0 0 0 0 0 0 23 0 0 0 0 5 0 0 0 14 0 0 0 0 0 0 0 0 0 7 0 0 0 0 0 0 0 2 0 0 0 91 0 0 0 0 0 56 3 0 0 0 0 34 0 23 0 0 0 0 0 0 24 51 0 0 0 0 0 0 0
0 0 0 0 0 0 0 45 0 0 0 0 0 0 0 0 0 0 0 0 14 0 0 13 21 22 0 32 0 0 0 0 0 0 0 0 0 0 0 0 0 0 0 8 0 38 0 0 83 0 0 20 0 0 0 0 0 0 0 0 0 0 0 0 0 24 0 7 0 0 27 37 0 0 82 0 0 0 0 16 0 0 0 0 0 0 0 0 0 0 0 0 6 0 0 32 0 0 0 0
0 0 0 0 52 0 0 0 9 0 5 0 0 46 0 0 0 0 0 0 0 0 0 0 0 0 2 0 30 0 2 30 0 2 0 48 0 0 0 0 2 0 0 0 0 0 0 0 0 0 0 0 25 0 0 0 0 0 0 0 0 0 0 0 0 32 7 85 4 0 0 0 0 0 2 0 0 0 1 0 0 0 0 0 9 0 0 0 0 0 0 0 11 0 0 0 0 35 42 0
0 0 0 0 0 0 0 0 0 0 0 0 0 0 0 0 39 0 0 0 0 0 0 0 0 0 0 0 0 0 0 9 0 0 7 0 52 0 0 0 0 0 5 0 0 1 0 0 16 0 0 0 0 28 0 18 0 0 0 17 0 0 0 0 0 0 4 0 0 0 0 0 0 0 0 0 3 0 0 0 61 38 0 74 0 0 8 12 0 0 0 0 0 0 0 0 34 0 0 0
0 0 0 0 0 0 0 0 0 0 0 0 0 0 0 0 0 0 0 0 0 0 0 24 0 19 0 0 0 0 0 0 34 22 0 0 25 0 0 8 0 0 0 0 0 0 0 0 0 0 0 0 0 0 23 0 0 0 0 0 0 0 0 0 38 0 0 0 0 0 0 0 3 0 0 0 0 0 0 0 0 0 0 0 0 0 0 21 0 0 0 0 0 0 15 0 0 1 11 0
0 0 0 0 0 43 36 1 0 0 15 1 0 12 0 0 0 0 1 0 0 0 0 8 25 0 0 0 26 0 38 0 0 0 15 0 0 27 0 0 0 7 14 11 12 0 0 9 0 0 0 0 20 0 0 0 0 0 0 0 0 0 0 0 0 0 0 5 0 0 0 0 0 0 0 0 0 0 0 0 2 0 0 33 57 0 0 0 0 0 0 0 0 10 0 0 0 8 0 0
0 0 0 5 0 0 0 0 2 0 9 4 0 0 45 0 0 0 0 0 64 0 35 30 0 0 0 0 0 0 4 75 0 0 14 0 0 0 0 0 0 0 0 0 0 2 0 0 0 0 0 0 52 0 0 54 0 15 0 32 0 0 0 0 0 0 0 24 0 0 0 0 0 0 0 0 0 0 0 59 0 0 0 1 0 0 0 0 0 0 0 91 0 0 67 0 0 0 0 0
0 0 0 0 0 0 0 0 55 0 0 0 0 0 0 0 0 0 0 47 0 81 19 0 0 0 0 0 0 12 0 0 0 0 0 0 0 1 0 0 6 0 0 87 0 56 0 0 0 0 0 17 0 0 0 49 0 47 0 8 0 0 0 0 0 59 0 0 0 38 10 23 0 0 0 0 0 0 1 0 0 0 0 0 0 0 31 0 0 24 9 0 0 0 0 0 0 0 0 2
0 0 0 0 0 0 0 50 0 0 0 0 3 0 0 0 0 0 0 0 0 0 0 0 0 0 82 0 0 0 0 0 82 0 0 51 24 0 0 23 0 4 0 0 0 0 0 0 0 0 0 0 1 37 0 0 0 0 0 0 33 23 0 0 0 32 27 0 55 0 0 0 0 0 16 0 27 0 12 56 26 0 40 0 28 0 0 22 0 0 0 0 0 0 0 0 16 0 0 0
0 0 0 0 0 0 0 0 0 0 0 0 20 0 0 41 0 0 0 0 19 0 0 0 0 45 0 0 0 0 0 75 0 0 0 0 0 37 0 0 0 0 0 0 0 0 2 0 23 0 0 0 0 0 0 0 0 0 0 58 0 0 0 0 0 0 0 0 0 1 0 40 0 0 0 0 0 0 0 0 0 0 0 0 0 0 0 21 0 0 0 0 0 0 0 0 7 0 0 0
0 0 0 0 0 0 0 0 24 0 0 0 0 0 0 0 0 0 0 0 0 0 24 0 0 0 0 0 0 0 0 0 0 0 0 10 0 0 0 0 0 0 0 0 0 41 0 30 45 0 0 27 0 0 0 0 0 0 32 0 14 0 9 0 13 0 0 4 0 0 24 0 0 0 0 3 0 0 0 0 0 0 0 0 8 0 0 0 29 0 0 31 0 28 0 0 0 0 0 0
76 0 2 0 0 0 0 8 0 0 0 8 0 0 0 0 0 0 0 0 0 0 0 5 0 7 0 0 0 18 38 0 0 0 47 4 0 0 0 0 0 0 0 0 0 0 0 0 4 0 0 0 0 48 18 0 0 8 68 0 0 39 1 54 13 0 0 0 0 0 0 0 40 0 73 0 0 0 0 0 0 10 0 0 0 0 0 0 24 25 0 0 0 0 0 0 0 0 0 0
0 0 0 0 33 0 0 0 18 78 0 0 0 0 0 46 0 0 78 0 7 0 3 0 0 0 0 0 0 0 0 0 13 0 8 0 0 0 0 0 0 0 0 0 38 0 0 0 0 0 0 0 17 0 6 0 0 0 0 0 0 14 0 0 0 0 0 12 0 0 0 0 0 0 0 1 0 0 0 45 0 0 0 0 0 0 0 57 13 0 0 0 0 26 0 1 0 0 0 26
0 0 0 23 0 0 0 0 0 0 0 0 0 0 0 37 0 2 0 0 0 0 0 29 45 0 0 0 0 0 26 14 1 0 0 2 0 0 0 0 0 24 0 0 0 0 0 0 0 0 0 0 0 39 0 0 11 0 0 0 39 0 0 6 0 0 42 0 0 0 68 0 0 0 0 0 0 48 0 0 0 0 0 3 0 9 0 0 0 0 24 71 0 0 0 0 0 0 0 0
0 0 0 0 0 0 32 0 0 0 0 0 0 12 0 0 22 0 0 65 0 7 2 0 0 0 0 0 0 0 0 0 0 0 0 0 0 0 0 0 0 0 0 4 0 0 0 0 0 0 0 0 0 0 0 0 0 0 0 0 0 0 20 3 0 0 0 0 0 0 0 0 0 35 0 0 0 17 0 0 0 0 0 0 0 17 43 0 0 20 0 0 0 0 0 0 0 0 0 0
0 0 0 31 0 0 0 0 0 9 29 0 0 0 0 51 0 0 0 0 0 0 0 0 0 0 3 0 0 0 0 0 0 0 0 0 47 0 0 0 0 0 0 20 0 0 0 0 0 7 8 1 0 0 50 0 0 0 0 0 0 56 0 0 9 46 60 0 0 0 0 0 0 0 0 0 0 0 0 1 21 0 0 13 0 0 0 0 22 27 0 0 0 1 0 0 17 0 35 0
